33D32945 STP File, STP Format Version 1.0

SECTION Comment 
Name "hc6p" 
Creator “”  
Remark "prize version of Rosseti et al. hypercube graphs"  
END 

SECTION Graph
Nodes 64
Edges 192
E 1 33 100.000000
E 1 17 101.000000
E 1 9 108.000000
E 1 5 105.000000
E 1 3 105.000000
E 1 2 102.000000
E 2 34 100.000000
E 2 18 107.000000
E 2 10 107.000000
E 2 6 110.000000
E 2 4 104.000000
E 3 35 105.000000
E 3 19 109.000000
E 3 11 100.000000
E 3 7 100.000000
E 3 4 105.000000
E 4 36 107.000000
E 4 20 100.000000
E 4 12 104.000000
E 4 8 100.000000
E 5 37 104.000000
E 5 21 107.000000
E 5 13 106.000000
E 5 7 110.000000
E 5 6 109.000000
E 6 38 105.000000
E 6 22 101.000000
E 6 14 107.000000
E 6 8 104.000000
E 7 39 107.000000
E 7 23 110.000000
E 7 15 108.000000
E 7 8 102.000000
E 8 40 100.000000
E 8 24 108.000000
E 8 16 103.000000
E 9 41 106.000000
E 9 25 108.000000
E 9 13 110.000000
E 9 11 104.000000
E 9 10 102.000000
E 10 42 110.000000
E 10 26 107.000000
E 10 14 108.000000
E 10 12 107.000000
E 11 43 100.000000
E 11 27 106.000000
E 11 15 109.000000
E 11 12 102.000000
E 12 44 104.000000
E 12 28 108.000000
E 12 16 105.000000
E 13 45 102.000000
E 13 29 103.000000
E 13 15 103.000000
E 13 14 101.000000
E 14 46 105.000000
E 14 30 109.000000
E 14 16 110.000000
E 15 47 100.000000
E 15 31 109.000000
E 15 16 105.000000
E 16 48 105.000000
E 16 32 103.000000
E 17 49 110.000000
E 17 25 105.000000
E 17 21 102.000000
E 17 19 100.000000
E 17 18 110.000000
E 18 50 100.000000
E 18 26 105.000000
E 18 22 104.000000
E 18 20 103.000000
E 19 51 110.000000
E 19 27 105.000000
E 19 23 105.000000
E 19 20 110.000000
E 20 52 100.000000
E 20 28 108.000000
E 20 24 108.000000
E 21 53 109.000000
E 21 29 101.000000
E 21 23 100.000000
E 21 22 107.000000
E 22 54 109.000000
E 22 30 106.000000
E 22 24 108.000000
E 23 55 107.000000
E 23 31 110.000000
E 23 24 109.000000
E 24 56 102.000000
E 24 32 103.000000
E 25 57 103.000000
E 25 29 105.000000
E 25 27 106.000000
E 25 26 109.000000
E 26 58 104.000000
E 26 30 109.000000
E 26 28 102.000000
E 27 59 104.000000
E 27 31 105.000000
E 27 28 105.000000
E 28 60 103.000000
E 28 32 101.000000
E 29 61 101.000000
E 29 31 106.000000
E 29 30 108.000000
E 30 62 100.000000
E 30 32 105.000000
E 31 63 105.000000
E 31 32 110.000000
E 32 64 108.000000
E 33 49 106.000000
E 33 41 109.000000
E 33 37 106.000000
E 33 35 109.000000
E 33 34 101.000000
E 34 50 102.000000
E 34 42 107.000000
E 34 38 101.000000
E 34 36 101.000000
E 35 51 103.000000
E 35 43 100.000000
E 35 39 104.000000
E 35 36 100.000000
E 36 52 107.000000
E 36 44 110.000000
E 36 40 102.000000
E 37 53 101.000000
E 37 45 103.000000
E 37 39 109.000000
E 37 38 107.000000
E 38 54 101.000000
E 38 46 107.000000
E 38 40 104.000000
E 39 55 104.000000
E 39 47 105.000000
E 39 40 101.000000
E 40 56 106.000000
E 40 48 109.000000
E 41 57 106.000000
E 41 45 110.000000
E 41 43 106.000000
E 41 42 101.000000
E 42 58 110.000000
E 42 46 104.000000
E 42 44 101.000000
E 43 59 106.000000
E 43 47 102.000000
E 43 44 105.000000
E 44 60 105.000000
E 44 48 110.000000
E 45 61 101.000000
E 45 47 102.000000
E 45 46 103.000000
E 46 62 106.000000
E 46 48 101.000000
E 47 63 107.000000
E 47 48 106.000000
E 48 64 108.000000
E 49 57 102.000000
E 49 53 105.000000
E 49 51 104.000000
E 49 50 102.000000
E 50 58 100.000000
E 50 54 109.000000
E 50 52 104.000000
E 51 59 101.000000
E 51 55 110.000000
E 51 52 104.000000
E 52 60 101.000000
E 52 56 109.000000
E 53 61 101.000000
E 53 55 101.000000
E 53 54 100.000000
E 54 62 104.000000
E 54 56 102.000000
E 55 63 101.000000
E 55 56 108.000000
E 56 64 105.000000
E 57 61 103.000000
E 57 59 104.000000
E 57 58 108.000000
E 58 62 110.000000
E 58 60 107.000000
E 59 63 102.000000
E 59 60 107.000000
E 60 64 109.000000
E 61 63 102.000000
E 61 62 109.000000
E 62 64 105.000000
E 63 64 105.000000
END

SECTION Terminals
Terminals 64
TP 1 131
TP 2 0
TP 3 0
TP 4 137
TP 5 0
TP 6 196
TP 7 190
TP 8 0
TP 9 0
TP 10 192
TP 11 112
TP 12 0
TP 13 108
TP 14 0
TP 15 0
TP 16 175
TP 17 0
TP 18 159
TP 19 179
TP 20 0
TP 21 111
TP 22 0
TP 23 0
TP 24 183
TP 25 179
TP 26 0
TP 27 0
TP 28 139
TP 29 0
TP 30 124
TP 31 126
TP 32 0
TP 33 0
TP 34 132
TP 35 119
TP 36 0
TP 37 117
TP 38 0
TP 39 0
TP 40 188
TP 41 139
TP 42 0
TP 43 0
TP 44 191
TP 45 0
TP 46 117
TP 47 181
TP 48 0
TP 49 130
TP 50 0
TP 51 0
TP 52 164
TP 53 0
TP 54 162
TP 55 174
TP 56 0
TP 57 0
TP 58 157
TP 59 133
TP 60 0
TP 61 116
TP 62 0
TP 63 0
TP 64 178
END

EOF
